Route 1: 0 11 73 53 77 80 35 45 83 87 0
Route 2: 0 51 38 9 61 36 68 0
Route 3: 0 92 14 60 1 81 12 18 42 49 5 66 23 0
Route 4: 0 33 96 34 69 20 65 3 13 41 39 44 0
Route 5: 0 74 78 84 93 22 97 47 28 85 32 0
Route 6: 0 43 99 64 6 25 29 4 82 37 10 0
Route 7: 0 79 7 67 17 76 55 15 8 21 57 0
Route 8: 0 16 26 59 19 30 56 0
Route 9: 0 24 71 94 88 27 98 70 0
Route 10: 0 95 100 2 91 31 75 54 86 0
Route 11: 0 72 62 52 90 50 48 40 89 0
Route 12: 0 63 58 46 0
